fp/recursion/.liquid/flycheck_prefix.hs.fqout.smt2
(set-option :auto-config false)
(set-option :model true)
(set-option :model.partial false)
(set-option :smt.mbqi false)
(define-sort SMT_Elt () Int)
(define-sort SMT_Set () (Array SMT_Elt Bool))
(define-fun smt_set_emp () SMT_Set ((as const SMT_Set) false))
(define-fun smt_set_mem ((x SMT_Elt) (s SMT_Set)) Bool (select s x))
(define-fun smt_set_add ((s SMT_Set) (x SMT_Elt)) SMT_Set (store s x true))
(define-fun smt_set_cup ((s1 SMT_Set) (s2 SMT_Set)) SMT_Set ((_ map or) s1 s2))
(define-fun smt_set_cap ((s1 SMT_Set) (s2 SMT_Set)) SMT_Set ((_ map and) s1 s2))
(define-fun smt_set_com ((s SMT_Set)) SMT_Set ((_ map not) s))
(define-fun smt_set_dif ((s1 SMT_Set) (s2 SMT_Set)) SMT_Set (smt_set_cap s1 (smt_set_com s2)))
(define-fun smt_set_sub ((s1 SMT_Set) (s2 SMT_Set)) Bool (= smt_set_emp (smt_set_dif s1 s2)))
(declare-fun z3v62 () Int)
(declare-fun z3v63 () Int)
(assert (distinct z3v62 z3v63))
(declare-fun z3v64 () Int)
(declare-fun z3f65 (Int) Int)
(declare-fun z3v66 () Int)
(declare-fun z3f67 (Int) Bool)
(declare-fun z3v68 () Int)
(declare-fun z3f69 (Int) Bool)
(declare-fun z3v70 () Int)
(declare-fun z3f71 (Int) Int)
(declare-fun z3v72 () Int)
(declare-fun z3v73 () Int)
(push 1)
(assert true)
(assert (and (>= (z3f65 z3v64) 0) (>= (z3f65 z3v66) 0) (= (z3f65 z3v66) 0) (= (z3f67 z3v66) true) (>= (z3f65 z3v68) 0) (z3f69 z3v62) (= (z3f71 z3v70) z3v70) (= (z3f71 z3v72) z3v72) (not (z3f69 z3v63)) (= (z3f71 z3v73) z3v73)))
(declare-fun z3v74 () Int)
(declare-fun z3v75 () Int)
(push 1)
(assert (not (not (= z3v75 z3v74))))
(check-sat)
(pop 1)
(push 1)
(assert (not (<= z3v75 z3v74)))
(check-sat)
(pop 1)
(push 1)
(assert (not (<  z3v75 z3v74)))
(check-sat)
(pop 1)
(push 1)
(assert (not (>  z3v75 z3v74)))
(check-sat)
(pop 1)
(push 1)
(assert (not (>= z3v75 z3v74)))
(check-sat)
(pop 1)
(push 1)
(assert (not (= z3v75 z3v74)))
(check-sat)
(pop 1)
(pop 1)
(declare-fun z3v76 () Int)
(push 1)
(assert true)
(assert (and (>= (z3f65 z3v66) 0) (= (z3f65 z3v66) 0) (= (z3f67 z3v66) true) (>= (z3f65 z3v76) 0) (z3f69 z3v62) (= (z3f71 z3v70) z3v70) (= (z3f71 z3v72) z3v72) (not (z3f69 z3v63)) (= (z3f71 z3v73) z3v73)))
(declare-fun z3v77 () Int)
(push 1)
(assert (not (>  (z3f65 z3v77) 0)))
(check-sat)
(pop 1)
(push 1)
(assert (not (= (z3f65 z3v77) 0)))
(check-sat)
(pop 1)
(push 1)
(assert (not (>= (z3f65 z3v77) 0)))
(check-sat)
(pop 1)
(push 1)
(assert (not (>  (z3f65 z3v77) (z3f65 z3v66))))
(check-sat)
(pop 1)
(push 1)
(assert (not (= (z3f65 z3v77) (z3f65 z3v66))))
(check-sat)
(pop 1)
(push 1)
(assert (not (<  (z3f65 z3v77) (z3f65 z3v66))))
(check-sat)
(pop 1)
(push 1)
(assert (not (>= (z3f65 z3v77) (z3f65 z3v66))))
(check-sat)
(pop 1)
(push 1)
(assert (not (<= (z3f65 z3v77) (z3f65 z3v66))))
(check-sat)
(pop 1)
(push 1)
(assert (not (not (= z3v77 z3v66))))
(check-sat)
(pop 1)
(push 1)
(assert (not (<= z3v77 z3v66)))
(check-sat)
(pop 1)
(push 1)
(assert (not (<  z3v77 z3v66)))
(check-sat)
(pop 1)
(push 1)
(assert (not (>  z3v77 z3v66)))
(check-sat)
(pop 1)
(push 1)
(assert (not (>= z3v77 z3v66)))
(check-sat)
(pop 1)
(push 1)
(assert (not (= z3v77 z3v66)))
(check-sat)
(pop 1)
(pop 1)
(push 1)
(assert true)
(assert (and (>= (z3f65 z3v66) 0) (= (z3f65 z3v66) 0) (= (z3f67 z3v66) true) (>= (z3f65 z3v76) 0) (z3f69 z3v62) (= (z3f71 z3v70) z3v70) (= (z3f71 z3v72) z3v72) (not (z3f69 z3v63)) (= (z3f71 z3v73) z3v73)))
(declare-fun z3v78 () Int)
(declare-fun z3v79 () Int)
(push 1)
(assert (not (not (= z3v79 z3v78))))
(check-sat)
(pop 1)
(push 1)
(assert (not (<= z3v79 z3v78)))
(check-sat)
(pop 1)
(push 1)
(assert (not (<  z3v79 z3v78)))
(check-sat)
(pop 1)
(push 1)
(assert (not (>  z3v79 z3v78)))
(check-sat)
(pop 1)
(push 1)
(assert (not (>= z3v79 z3v78)))
(check-sat)
(pop 1)
(push 1)
(assert (not (= z3v79 z3v78)))
(check-sat)
(pop 1)
(pop 1)
(push 1)
(assert true)
(assert (and (>= (z3f65 z3v64) 0) (>= (z3f65 z3v66) 0) (= (z3f65 z3v66) 0) (= (z3f67 z3v66) true) (>= (z3f65 z3v68) 0) (z3f69 z3v62) (= (z3f71 z3v70) z3v70) (= (z3f71 z3v72) z3v72) (not (z3f69 z3v63)) (= (z3f71 z3v73) z3v73)))
(declare-fun z3v80 () Int)
(push 1)
(assert (not (>  (z3f65 z3v80) 0)))
(check-sat)
(pop 1)
(push 1)
(assert (not (= (z3f65 z3v80) 0)))
(check-sat)
(pop 1)
(push 1)
(assert (not (>= (z3f65 z3v80) 0)))
(check-sat)
(pop 1)
(push 1)
(assert (not (>  (z3f65 z3v80) (z3f65 z3v64))))
(check-sat)
(pop 1)
(push 1)
(assert (not (>  (z3f65 z3v80) (z3f65 z3v66))))
(check-sat)
(pop 1)
(push 1)
(assert (not (= (z3f65 z3v80) (z3f65 z3v64))))
(check-sat)
(pop 1)
(push 1)
(assert (not (= (z3f65 z3v80) (z3f65 z3v66))))
(check-sat)
(pop 1)
(push 1)
(assert (not (<  (z3f65 z3v80) (z3f65 z3v64))))
(check-sat)
(pop 1)
(push 1)
(assert (not (<  (z3f65 z3v80) (z3f65 z3v66))))
(check-sat)
(pop 1)
(push 1)
(assert (not (>= (z3f65 z3v80) (z3f65 z3v64))))
(check-sat)
(pop 1)
(push 1)
(assert (not (>= (z3f65 z3v80) (z3f65 z3v66))))
(check-sat)
(pop 1)
(push 1)
(assert (not (<= (z3f65 z3v80) (z3f65 z3v64))))
(check-sat)
(pop 1)
(push 1)
(assert (not (<= (z3f65 z3v80) (z3f65 z3v66))))
(check-sat)
(pop 1)
(push 1)
(assert (not (not (= z3v80 z3v64))))
(check-sat)
(pop 1)
(push 1)
(assert (not (not (= z3v80 z3v66))))
(check-sat)
(pop 1)
(push 1)
(assert (not (<= z3v80 z3v64)))
(check-sat)
(pop 1)
(push 1)
(assert (not (<= z3v80 z3v66)))
(check-sat)
(pop 1)
(push 1)
(assert (not (<  z3v80 z3v64)))
(check-sat)
(pop 1)
(push 1)
(assert (not (<  z3v80 z3v66)))
(check-sat)
(pop 1)
(push 1)
(assert (not (>  z3v80 z3v64)))
(check-sat)
(pop 1)
(push 1)
(assert (not (>  z3v80 z3v66)))
(check-sat)
(pop 1)
(push 1)
(assert (not (>= z3v80 z3v64)))
(check-sat)
(pop 1)
(push 1)
(assert (not (>= z3v80 z3v66)))
(check-sat)
(pop 1)
(push 1)
(assert (not (= z3v80 z3v64)))
(check-sat)
(pop 1)
(push 1)
(assert (not (= z3v80 z3v66)))
(check-sat)
(pop 1)
(pop 1)
(declare-fun z3v81 () Int)
(declare-fun z3v82 () Int)
(push 1)
(assert true)
(assert (= z3v82 z3v66))
(assert (>= (z3f65 z3v82) 0))
(assert (= (z3f65 z3v82) 0))
(assert (= (z3f67 z3v82) true))
(assert (and (>= (z3f65 z3v66) 0) (= (z3f65 z3v66) 0) (= (z3f67 z3v66) true) (>= (z3f65 z3v81) 0) (= z3v81 z3v66) (>= (z3f65 z3v81) 0) (= (z3f65 z3v81) 0) (= (z3f67 z3v81) true) (z3f69 z3v62) (= (z3f71 z3v70) z3v70) (= (z3f71 z3v72) z3v72) (not (z3f69 z3v63)) (= (z3f71 z3v73) z3v73)))
(push 1)
(assert (not (>  (z3f65 z3v82) 0)))
(check-sat)
(pop 1)
(pop 1)
(declare-fun z3v83 () Int)
(declare-fun z3v84 () Int)
(declare-fun z3v85 () Int)
(push 1)
(assert true)
(assert (and (>= (z3f65 z3v84) 0) (>= (z3f65 z3v83) 0) (>= (z3f65 z3v85) 0) (z3f69 z3v62) (= (z3f71 z3v70) z3v70) (= (z3f71 z3v72) z3v72) (not (z3f69 z3v63)) (= (z3f71 z3v73) z3v73)))
(assert (= (z3f65 z3v83) 0))
(assert (>= (z3f65 z3v83) 0))
(declare-fun z3v86 () Int)
(declare-fun z3v87 () Int)
(push 1)
(assert (not (not (= z3v87 z3v86))))
(check-sat)
(pop 1)
(push 1)
(assert (not (<= z3v87 z3v86)))
(check-sat)
(pop 1)
(push 1)
(assert (not (<  z3v87 z3v86)))
(check-sat)
(pop 1)
(push 1)
(assert (not (>  z3v87 z3v86)))
(check-sat)
(pop 1)
(push 1)
(assert (not (>= z3v87 z3v86)))
(check-sat)
(pop 1)
(push 1)
(assert (not (= z3v87 z3v86)))
(check-sat)
(pop 1)
(pop 1)
(push 1)
(assert true)
(assert (and (>= (z3f65 z3v84) 0) (>= (z3f65 z3v83) 0) (>= (z3f65 z3v85) 0) (z3f69 z3v62) (= (z3f71 z3v70) z3v70) (= (z3f71 z3v72) z3v72) (not (z3f69 z3v63)) (= (z3f71 z3v73) z3v73)))
(assert (= (z3f65 z3v83) 0))
(assert (>= (z3f65 z3v83) 0))
(declare-fun z3v88 () Int)
(push 1)
(assert (not (>  (z3f65 z3v88) 0)))
(check-sat)
(pop 1)
(push 1)
(assert (not (= (z3f65 z3v88) 0)))
(check-sat)
(pop 1)
(push 1)
(assert (not (>= (z3f65 z3v88) 0)))
(check-sat)
(pop 1)
(push 1)
(assert (not (>  (z3f65 z3v88) (z3f65 z3v84))))
(check-sat)
(pop 1)
(push 1)
(assert (not (>  (z3f65 z3v88) (z3f65 z3v83))))
(check-sat)
(pop 1)
(push 1)
(assert (not (= (z3f65 z3v88) (z3f65 z3v84))))
(check-sat)
(pop 1)
(push 1)
(assert (not (= (z3f65 z3v88) (z3f65 z3v83))))
(check-sat)
(pop 1)
(push 1)
(assert (not (<  (z3f65 z3v88) (z3f65 z3v84))))
(check-sat)
(pop 1)
(push 1)
(assert (not (<  (z3f65 z3v88) (z3f65 z3v83))))
(check-sat)
(pop 1)
(push 1)
(assert (not (>= (z3f65 z3v88) (z3f65 z3v84))))
(check-sat)
(pop 1)
(push 1)
(assert (not (>= (z3f65 z3v88) (z3f65 z3v83))))
(check-sat)
(pop 1)
(push 1)
(assert (not (<= (z3f65 z3v88) (z3f65 z3v84))))
(check-sat)
(pop 1)
(push 1)
(assert (not (<= (z3f65 z3v88) (z3f65 z3v83))))
(check-sat)
(pop 1)
(push 1)
(assert (not (not (= z3v88 z3v84))))
(check-sat)
(pop 1)
(push 1)
(assert (not (not (= z3v88 z3v83))))
(check-sat)
(pop 1)
(push 1)
(assert (not (<= z3v88 z3v84)))
(check-sat)
(pop 1)
(push 1)
(assert (not (<= z3v88 z3v83)))
(check-sat)
(pop 1)
(push 1)
(assert (not (<  z3v88 z3v84)))
(check-sat)
(pop 1)
(push 1)
(assert (not (<  z3v88 z3v83)))
(check-sat)
(pop 1)
(push 1)
(assert (not (>  z3v88 z3v84)))
(check-sat)
(pop 1)
(push 1)
(assert (not (>  z3v88 z3v83)))
(check-sat)
(pop 1)
(push 1)
(assert (not (>= z3v88 z3v84)))
(check-sat)
(pop 1)
(push 1)
(assert (not (>= z3v88 z3v83)))
(check-sat)
(pop 1)
(push 1)
(assert (not (= z3v88 z3v84)))
(check-sat)
(pop 1)
(push 1)
(assert (not (= z3v88 z3v83)))
(check-sat)
(pop 1)
(pop 1)
(declare-fun z3v89 () Int)
(push 1)
(assert true)
(assert (and (>= (z3f65 z3v83) 0) (>= (z3f65 z3v89) 0) (z3f69 z3v62) (= (z3f71 z3v70) z3v70) (= (z3f71 z3v72) z3v72) (not (z3f69 z3v63)) (= (z3f71 z3v73) z3v73)))
(assert (= (z3f65 z3v83) 0))
(assert (>= (z3f65 z3v83) 0))
(declare-fun z3v90 () Int)
(declare-fun z3v91 () Int)
(push 1)
(assert (not (not (= z3v91 z3v90))))
(check-sat)
(pop 1)
(push 1)
(assert (not (<= z3v91 z3v90)))
(check-sat)
(pop 1)
(push 1)
(assert (not (<  z3v91 z3v90)))
(check-sat)
(pop 1)
(push 1)
(assert (not (>  z3v91 z3v90)))
(check-sat)
(pop 1)
(push 1)
(assert (not (>= z3v91 z3v90)))
(check-sat)
(pop 1)
(push 1)
(assert (not (= z3v91 z3v90)))
(check-sat)
(pop 1)
(pop 1)
(push 1)
(assert true)
(assert (and (>= (z3f65 z3v83) 0) (>= (z3f65 z3v89) 0) (z3f69 z3v62) (= (z3f71 z3v70) z3v70) (= (z3f71 z3v72) z3v72) (not (z3f69 z3v63)) (= (z3f71 z3v73) z3v73)))
(assert (= (z3f65 z3v83) 0))
(assert (>= (z3f65 z3v83) 0))
(declare-fun z3v92 () Int)
(push 1)
(assert (not (>  (z3f65 z3v92) 0)))
(check-sat)
(pop 1)
(push 1)
(assert (not (= (z3f65 z3v92) 0)))
(check-sat)
(pop 1)
(push 1)
(assert (not (>= (z3f65 z3v92) 0)))
(check-sat)
(pop 1)
(push 1)
(assert (not (>  (z3f65 z3v92) (z3f65 z3v83))))
(check-sat)
(pop 1)
(push 1)
(assert (not (= (z3f65 z3v92) (z3f65 z3v83))))
(check-sat)
(pop 1)
(push 1)
(assert (not (<  (z3f65 z3v92) (z3f65 z3v83))))
(check-sat)
(pop 1)
(push 1)
(assert (not (>= (z3f65 z3v92) (z3f65 z3v83))))
(check-sat)
(pop 1)
(push 1)
(assert (not (<= (z3f65 z3v92) (z3f65 z3v83))))
(check-sat)
(pop 1)
(push 1)
(assert (not (not (= z3v92 z3v83))))
(check-sat)
(pop 1)
(push 1)
(assert (not (<= z3v92 z3v83)))
(check-sat)
(pop 1)
(push 1)
(assert (not (<  z3v92 z3v83)))
(check-sat)
(pop 1)
(push 1)
(assert (not (>  z3v92 z3v83)))
(check-sat)
(pop 1)
(push 1)
(assert (not (>= z3v92 z3v83)))
(check-sat)
(pop 1)
(push 1)
(assert (not (= z3v92 z3v83)))
(check-sat)
(pop 1)
(pop 1)
(declare-fun z3v93 () Int)
(declare-fun z3v94 () Int)
(push 1)
(assert true)
(assert (= (z3f65 z3v94) 0))
(assert (>= (z3f65 z3v94) 0))
(assert (and (>= (z3f65 z3v93) 0) (z3f69 z3v62) (= (z3f71 z3v70) z3v70) (= (z3f71 z3v72) z3v72) (not (z3f69 z3v63)) (= (z3f71 z3v73) z3v73)))
(assert (= (z3f65 z3v93) 0))
(assert (>= (z3f65 z3v93) 0))
(push 1)
(assert (not (>  (z3f65 z3v94) 0)))
(check-sat)
(pop 1)
(pop 1)
(declare-fun z3v95 () Int)
(declare-fun z3v96 () Int)
(declare-fun z3v97 () Int)
(declare-fun z3v98 () Int)
(declare-fun z3f99 (Int) Int)
(declare-fun z3v100 () Int)
(declare-fun z3f101 (Int) Int)
(declare-fun z3f102 (Int Int) Int)
(declare-fun z3v103 () Int)
(declare-fun z3v104 () Int)
(declare-fun z3v105 () Int)
(declare-fun z3v106 () Int)
(push 1)
(assert true)
(assert (= z3v106 z3v104))
(assert (and (>= (z3f65 z3v96) 0) (>= (z3f65 z3v97) 0) (= (z3f99 z3v97) z3v98) (= (z3f101 z3v97) z3v100) (= (z3f65 z3v97) (+ 1 (z3f65 z3v100))) (= (z3f67 z3v97) false) (= z3v97 (z3f102 z3v98 z3v100)) (>= (z3f65 z3v97) 0) (= z3v97 z3v103) (>= (z3f65 z3v97) 0) (>= (z3f65 z3v100) 0) (>= (z3f65 z3v103) 0) (>= (z3f65 z3v95) 0) (= z3v105 z3v104) (z3f69 z3v62) (= (z3f71 z3v70) z3v70) (= (z3f71 z3v72) z3v72) (not (z3f69 z3v63)) (= (z3f71 z3v73) z3v73)))
(assert (= (z3f65 z3v95) 0))
(assert (>= (z3f65 z3v95) 0))
(push 1)
(assert (not (not (= z3v106 z3v104))))
(check-sat)
(pop 1)
(push 1)
(assert (not (<= z3v106 z3v104)))
(check-sat)
(pop 1)
(push 1)
(assert (not (<  z3v106 z3v104)))
(check-sat)
(pop 1)
(push 1)
(assert (not (>  z3v106 z3v104)))
(check-sat)
(pop 1)
(push 1)
(assert (not (>= z3v106 z3v104)))
(check-sat)
(pop 1)
(pop 1)
(declare-fun z3v107 () Int)
(declare-fun z3v108 () Int)
(declare-fun z3v109 () Int)
(declare-fun z3v110 () Int)
(declare-fun z3v111 () Int)
(declare-fun z3v112 () Int)
(declare-fun z3v113 () Int)
(declare-fun z3v114 () Int)
(declare-fun z3v115 () Int)
(declare-fun z3v116 () Int)
(declare-fun z3v117 () Int)
(declare-fun z3v118 () Int)
(push 1)
(assert true)
(assert (= z3v118 z3v110))
(assert (>= (z3f65 z3v118) 0))
(assert (= (z3f99 z3v118) z3v111))
(assert (= (z3f101 z3v118) z3v95))
(assert (= (z3f65 z3v118) (+ 1 (z3f65 z3v95))))
(assert (= (z3f67 z3v118) false))
(assert (and (>= (z3f65 z3v108) 0) (>= (z3f65 z3v109) 0) (>= (z3f65 z3v96) 0) (>= (z3f65 z3v110) 0) (= (z3f99 z3v110) z3v111) (= (z3f101 z3v110) z3v95) (= (z3f65 z3v110) (+ 1 (z3f65 z3v95))) (= (z3f67 z3v110) false) (z3f69 z3v112) (z3f69 z3v112) (= z3v112 z3v113) (= (z3f69 z3v112) (= z3v111 z3v114)) (= (z3f69 z3v113) (= z3v111 z3v114)) (>= (z3f65 z3v115) 0) (= (z3f99 z3v115) z3v114) (= (z3f101 z3v115) z3v108) (= (z3f65 z3v115) (+ 1 (z3f65 z3v108))) (= (z3f67 z3v115) false) (= z3v115 (z3f102 z3v114 z3v108)) (>= (z3f65 z3v115) 0) (= z3v115 z3v103) (>= (z3f65 z3v115) 0) (>= (z3f65 z3v116) 0) (= (z3f99 z3v116) z3v111) (= (z3f101 z3v116) z3v109) (= (z3f65 z3v116) (+ 1 (z3f65 z3v109))) (= (z3f67 z3v116) false) (= z3v116 (z3f102 z3v111 z3v109)) (>= (z3f65 z3v116) 0) (= z3v116 z3v96) (>= (z3f65 z3v116) 0) (>= (z3f65 z3v97) 0) (= (z3f99 z3v97) z3v98) (= (z3f101 z3v97) z3v100) (= (z3f65 z3v97) (+ 1 (z3f65 z3v100))) (= (z3f67 z3v97) false) (= z3v97 (z3f102 z3v98 z3v100)) (>= (z3f65 z3v97) 0) (= z3v97 z3v103) (>= (z3f65 z3v97) 0) (>= (z3f65 z3v100) 0) (>= (z3f65 z3v103) 0) (>= (z3f65 z3v95) 0) (>= (z3f65 z3v117) 0) (= z3v117 z3v110) (>= (z3f65 z3v117) 0) (= (z3f99 z3v117) z3v111) (= (z3f101 z3v117) z3v95) (= (z3f65 z3v117) (+ 1 (z3f65 z3v95))) (= (z3f67 z3v117) false) (z3f69 z3v62) (= (z3f71 z3v70) z3v70) (= (z3f71 z3v72) z3v72) (not (z3f69 z3v63)) (= (z3f71 z3v73) z3v73)))
(assert (= z3v107 z3v104))
(assert (<= z3v107 z3v104))
(assert (>= z3v107 z3v104))
(assert (= (z3f65 z3v95) 0))
(assert (>= (z3f65 z3v95) 0))
(push 1)
(assert (not (= (z3f65 z3v118) 0)))
(check-sat)
(pop 1)
(pop 1)
(declare-fun z3v119 () Int)
(push 1)
(assert true)
(assert (= z3v119 z3v104))
(assert (and (>= (z3f65 z3v96) 0) (>= (z3f65 z3v97) 0) (= (z3f99 z3v97) z3v98) (= (z3f101 z3v97) z3v100) (= (z3f65 z3v97) (+ 1 (z3f65 z3v100))) (= (z3f67 z3v97) false) (= z3v97 (z3f102 z3v98 z3v100)) (>= (z3f65 z3v97) 0) (= z3v97 z3v103) (>= (z3f65 z3v97) 0) (>= (z3f65 z3v100) 0) (>= (z3f65 z3v103) 0) (>= (z3f65 z3v95) 0) (= z3v105 z3v104) (z3f69 z3v62) (= (z3f71 z3v70) z3v70) (= (z3f71 z3v72) z3v72) (not (z3f69 z3v63)) (= (z3f71 z3v73) z3v73)))
(assert (>= (z3f65 z3v95) 0))
(push 1)
(assert (not (>= z3v119 z3v104)))
(check-sat)
(pop 1)
(push 1)
(assert (not (<= z3v119 z3v104)))
(check-sat)
(pop 1)
(pop 1)
(declare-fun z3v120 () Int)
(push 1)
(assert true)
(assert (= z3v120 z3v110))
(assert (>= (z3f65 z3v120) 0))
(assert (= (z3f99 z3v120) z3v111))
(assert (= (z3f101 z3v120) z3v95))
(assert (= (z3f65 z3v120) (+ 1 (z3f65 z3v95))))
(assert (= (z3f67 z3v120) false))
(assert (and (>= (z3f65 z3v108) 0) (>= (z3f65 z3v109) 0) (>= (z3f65 z3v96) 0) (>= (z3f65 z3v110) 0) (= (z3f99 z3v110) z3v111) (= (z3f101 z3v110) z3v95) (= (z3f65 z3v110) (+ 1 (z3f65 z3v95))) (= (z3f67 z3v110) false) (z3f69 z3v112) (z3f69 z3v112) (= z3v112 z3v113) (= (z3f69 z3v112) (= z3v111 z3v114)) (= (z3f69 z3v113) (= z3v111 z3v114)) (>= (z3f65 z3v115) 0) (= (z3f99 z3v115) z3v114) (= (z3f101 z3v115) z3v108) (= (z3f65 z3v115) (+ 1 (z3f65 z3v108))) (= (z3f67 z3v115) false) (= z3v115 (z3f102 z3v114 z3v108)) (>= (z3f65 z3v115) 0) (= z3v115 z3v103) (>= (z3f65 z3v115) 0) (>= (z3f65 z3v116) 0) (= (z3f99 z3v116) z3v111) (= (z3f101 z3v116) z3v109) (= (z3f65 z3v116) (+ 1 (z3f65 z3v109))) (= (z3f67 z3v116) false) (= z3v116 (z3f102 z3v111 z3v109)) (>= (z3f65 z3v116) 0) (= z3v116 z3v96) (>= (z3f65 z3v116) 0) (>= (z3f65 z3v97) 0) (= (z3f99 z3v97) z3v98) (= (z3f101 z3v97) z3v100) (= (z3f65 z3v97) (+ 1 (z3f65 z3v100))) (= (z3f67 z3v97) false) (= z3v97 (z3f102 z3v98 z3v100)) (>= (z3f65 z3v97) 0) (= z3v97 z3v103) (>= (z3f65 z3v97) 0) (>= (z3f65 z3v100) 0) (>= (z3f65 z3v103) 0) (>= (z3f65 z3v95) 0) (>= (z3f65 z3v117) 0) (= z3v117 z3v110) (>= (z3f65 z3v117) 0) (= (z3f99 z3v117) z3v111) (= (z3f101 z3v117) z3v95) (= (z3f65 z3v117) (+ 1 (z3f65 z3v95))) (= (z3f67 z3v117) false) (z3f69 z3v62) (= (z3f71 z3v70) z3v70) (= (z3f71 z3v72) z3v72) (not (z3f69 z3v63)) (= (z3f71 z3v73) z3v73)))
(assert (= z3v107 z3v104))
(assert (>= (z3f65 z3v95) 0))
(push 1)
(assert (not (and (>= (z3f65 z3v120) 0) (<  (z3f65 z3v120) (z3f65 z3v95)))))
(check-sat)
(pop 1)
(pop 1)
(declare-fun z3v121 () Int)
(push 1)
(assert true)
(assert (= z3v121 z3v110))
(assert (>= (z3f65 z3v121) 0))
(assert (= (z3f99 z3v121) z3v111))
(assert (= (z3f101 z3v121) z3v95))
(assert (= (z3f65 z3v121) (+ 1 (z3f65 z3v95))))
(assert (= (z3f67 z3v121) false))
(assert (and (>= (z3f65 z3v108) 0) (>= (z3f65 z3v109) 0) (>= (z3f65 z3v96) 0) (>= (z3f65 z3v110) 0) (= (z3f99 z3v110) z3v111) (= (z3f101 z3v110) z3v95) (= (z3f65 z3v110) (+ 1 (z3f65 z3v95))) (= (z3f67 z3v110) false) (z3f69 z3v112) (z3f69 z3v112) (= z3v112 z3v113) (= (z3f69 z3v112) (= z3v111 z3v114)) (= (z3f69 z3v113) (= z3v111 z3v114)) (>= (z3f65 z3v115) 0) (= (z3f99 z3v115) z3v114) (= (z3f101 z3v115) z3v108) (= (z3f65 z3v115) (+ 1 (z3f65 z3v108))) (= (z3f67 z3v115) false) (= z3v115 (z3f102 z3v114 z3v108)) (>= (z3f65 z3v115) 0) (= z3v115 z3v103) (>= (z3f65 z3v115) 0) (>= (z3f65 z3v116) 0) (= (z3f99 z3v116) z3v111) (= (z3f101 z3v116) z3v109) (= (z3f65 z3v116) (+ 1 (z3f65 z3v109))) (= (z3f67 z3v116) false) (= z3v116 (z3f102 z3v111 z3v109)) (>= (z3f65 z3v116) 0) (= z3v116 z3v96) (>= (z3f65 z3v116) 0) (>= (z3f65 z3v97) 0) (= (z3f99 z3v97) z3v98) (= (z3f101 z3v97) z3v100) (= (z3f65 z3v97) (+ 1 (z3f65 z3v100))) (= (z3f67 z3v97) false) (= z3v97 (z3f102 z3v98 z3v100)) (>= (z3f65 z3v97) 0) (= z3v97 z3v103) (>= (z3f65 z3v97) 0) (>= (z3f65 z3v100) 0) (>= (z3f65 z3v103) 0) (>= (z3f65 z3v95) 0) (>= (z3f65 z3v117) 0) (= z3v117 z3v110) (>= (z3f65 z3v117) 0) (= (z3f99 z3v117) z3v111) (= (z3f101 z3v117) z3v95) (= (z3f65 z3v117) (+ 1 (z3f65 z3v95))) (= (z3f67 z3v117) false) (z3f69 z3v62) (= (z3f71 z3v70) z3v70) (= (z3f71 z3v72) z3v72) (not (z3f69 z3v63)) (= (z3f71 z3v73) z3v73)))
(assert (= z3v107 z3v104))
(assert (>= (z3f65 z3v95) 0))
(push 1)
(assert (not (>= (z3f65 z3v121) 0)))
(check-sat)
(pop 1)
(pop 1)
(declare-fun z3v122 () Int)
(push 1)
(assert true)
(assert (and (>= (z3f65 z3v108) 0) (>= (z3f65 z3v109) 0) (>= (z3f65 z3v96) 0) (>= (z3f65 z3v110) 0) (= (z3f99 z3v110) z3v111) (= (z3f101 z3v110) z3v95) (= (z3f65 z3v110) (+ 1 (z3f65 z3v95))) (= (z3f67 z3v110) false) (z3f69 z3v112) (z3f69 z3v112) (= z3v112 z3v113) (= (z3f69 z3v112) (= z3v111 z3v114)) (= (z3f69 z3v113) (= z3v111 z3v114)) (>= (z3f65 z3v115) 0) (= (z3f99 z3v115) z3v114) (= (z3f101 z3v115) z3v108) (= (z3f65 z3v115) (+ 1 (z3f65 z3v108))) (= (z3f67 z3v115) false) (= z3v115 (z3f102 z3v114 z3v108)) (>= (z3f65 z3v115) 0) (= z3v115 z3v103) (>= (z3f65 z3v115) 0) (>= (z3f65 z3v116) 0) (= (z3f99 z3v116) z3v111) (= (z3f101 z3v116) z3v109) (= (z3f65 z3v116) (+ 1 (z3f65 z3v109))) (= (z3f67 z3v116) false) (= z3v116 (z3f102 z3v111 z3v109)) (>= (z3f65 z3v116) 0) (= z3v116 z3v96) (>= (z3f65 z3v116) 0) (>= (z3f65 z3v97) 0) (= (z3f99 z3v97) z3v98) (= (z3f101 z3v97) z3v100) (= (z3f65 z3v97) (+ 1 (z3f65 z3v100))) (= (z3f67 z3v97) false) (= z3v97 (z3f102 z3v98 z3v100)) (>= (z3f65 z3v97) 0) (= z3v97 z3v103) (>= (z3f65 z3v97) 0) (>= (z3f65 z3v100) 0) (>= (z3f65 z3v103) 0) (>= (z3f65 z3v95) 0) (>= (z3f65 z3v122) 0) (= z3v122 z3v109) (>= (z3f65 z3v122) 0) (z3f69 z3v62) (= (z3f71 z3v70) z3v70) (= (z3f71 z3v72) z3v72) (not (z3f69 z3v63)) (= (z3f71 z3v73) z3v73)))
(assert (= z3v107 z3v104))
(assert (>= (z3f65 z3v95) 0))
(pop 1)
(push 1)
(assert true)
(assert (and (>= (z3f65 z3v108) 0) (>= (z3f65 z3v109) 0) (>= (z3f65 z3v96) 0) (>= (z3f65 z3v110) 0) (= (z3f99 z3v110) z3v111) (= (z3f101 z3v110) z3v95) (= (z3f65 z3v110) (+ 1 (z3f65 z3v95))) (= (z3f67 z3v110) false) (z3f69 z3v112) (z3f69 z3v112) (= z3v112 z3v113) (= (z3f69 z3v112) (= z3v111 z3v114)) (= (z3f69 z3v113) (= z3v111 z3v114)) (>= (z3f65 z3v115) 0) (= (z3f99 z3v115) z3v114) (= (z3f101 z3v115) z3v108) (= (z3f65 z3v115) (+ 1 (z3f65 z3v108))) (= (z3f67 z3v115) false) (= z3v115 (z3f102 z3v114 z3v108)) (>= (z3f65 z3v115) 0) (= z3v115 z3v103) (>= (z3f65 z3v115) 0) (>= (z3f65 z3v116) 0) (= (z3f99 z3v116) z3v111) (= (z3f101 z3v116) z3v109) (= (z3f65 z3v116) (+ 1 (z3f65 z3v109))) (= (z3f67 z3v116) false) (= z3v116 (z3f102 z3v111 z3v109)) (>= (z3f65 z3v116) 0) (= z3v116 z3v96) (>= (z3f65 z3v116) 0) (>= (z3f65 z3v97) 0) (= (z3f99 z3v97) z3v98) (= (z3f101 z3v97) z3v100) (= (z3f65 z3v97) (+ 1 (z3f65 z3v100))) (= (z3f67 z3v97) false) (= z3v97 (z3f102 z3v98 z3v100)) (>= (z3f65 z3v97) 0) (= z3v97 z3v103) (>= (z3f65 z3v97) 0) (>= (z3f65 z3v100) 0) (>= (z3f65 z3v103) 0) (>= (z3f65 z3v95) 0) (>= (z3f65 z3v122) 0) (= z3v122 z3v109) (>= (z3f65 z3v122) 0) (z3f69 z3v62) (= (z3f71 z3v70) z3v70) (= (z3f71 z3v72) z3v72) (not (z3f69 z3v63)) (= (z3f71 z3v73) z3v73)))
(assert (= z3v107 z3v104))
(assert (>= (z3f65 z3v95) 0))
(pop 1)
(declare-fun z3v123 () Int)
(push 1)
(assert true)
(assert (= z3v123 z3v109))
(assert (>= (z3f65 z3v123) 0))
(assert (and (>= (z3f65 z3v108) 0) (>= (z3f65 z3v109) 0) (>= (z3f65 z3v96) 0) (>= (z3f65 z3v110) 0) (= (z3f99 z3v110) z3v111) (= (z3f101 z3v110) z3v95) (= (z3f65 z3v110) (+ 1 (z3f65 z3v95))) (= (z3f67 z3v110) false) (z3f69 z3v112) (z3f69 z3v112) (= z3v112 z3v113) (= (z3f69 z3v112) (= z3v111 z3v114)) (= (z3f69 z3v113) (= z3v111 z3v114)) (>= (z3f65 z3v115) 0) (= (z3f99 z3v115) z3v114) (= (z3f101 z3v115) z3v108) (= (z3f65 z3v115) (+ 1 (z3f65 z3v108))) (= (z3f67 z3v115) false) (= z3v115 (z3f102 z3v114 z3v108)) (>= (z3f65 z3v115) 0) (= z3v115 z3v103) (>= (z3f65 z3v115) 0) (>= (z3f65 z3v116) 0) (= (z3f99 z3v116) z3v111) (= (z3f101 z3v116) z3v109) (= (z3f65 z3v116) (+ 1 (z3f65 z3v109))) (= (z3f67 z3v116) false) (= z3v116 (z3f102 z3v111 z3v109)) (>= (z3f65 z3v116) 0) (= z3v116 z3v96) (>= (z3f65 z3v116) 0) (>= (z3f65 z3v97) 0) (= (z3f99 z3v97) z3v98) (= (z3f101 z3v97) z3v100) (= (z3f65 z3v97) (+ 1 (z3f65 z3v100))) (= (z3f67 z3v97) false) (= z3v97 (z3f102 z3v98 z3v100)) (>= (z3f65 z3v97) 0) (= z3v97 z3v103) (>= (z3f65 z3v97) 0) (>= (z3f65 z3v100) 0) (>= (z3f65 z3v103) 0) (>= (z3f65 z3v95) 0) (>= (z3f65 z3v122) 0) (= z3v122 z3v109) (>= (z3f65 z3v122) 0) (z3f69 z3v62) (= (z3f71 z3v70) z3v70) (= (z3f71 z3v72) z3v72) (not (z3f69 z3v63)) (= (z3f71 z3v73) z3v73)))
(assert (= z3v107 z3v104))
(assert (>= (z3f65 z3v95) 0))
(pop 1)
(declare-fun z3v124 () Int)
(push 1)
(assert true)
(assert (and (>= (z3f65 z3v108) 0) (>= (z3f65 z3v109) 0) (>= (z3f65 z3v96) 0) (>= (z3f65 z3v110) 0) (= (z3f99 z3v110) z3v111) (= (z3f101 z3v110) z3v95) (= (z3f65 z3v110) (+ 1 (z3f65 z3v95))) (= (z3f67 z3v110) false) (z3f69 z3v112) (z3f69 z3v112) (= z3v112 z3v113) (= (z3f69 z3v112) (= z3v111 z3v114)) (= (z3f69 z3v113) (= z3v111 z3v114)) (>= (z3f65 z3v115) 0) (= (z3f99 z3v115) z3v114) (= (z3f101 z3v115) z3v108) (= (z3f65 z3v115) (+ 1 (z3f65 z3v108))) (= (z3f67 z3v115) false) (= z3v115 (z3f102 z3v114 z3v108)) (>= (z3f65 z3v115) 0) (= z3v115 z3v103) (>= (z3f65 z3v115) 0) (>= (z3f65 z3v116) 0) (= (z3f99 z3v116) z3v111) (= (z3f101 z3v116) z3v109) (= (z3f65 z3v116) (+ 1 (z3f65 z3v109))) (= (z3f67 z3v116) false) (= z3v116 (z3f102 z3v111 z3v109)) (>= (z3f65 z3v116) 0) (= z3v116 z3v96) (>= (z3f65 z3v116) 0) (>= (z3f65 z3v97) 0) (= (z3f99 z3v97) z3v98) (= (z3f101 z3v97) z3v100) (= (z3f65 z3v97) (+ 1 (z3f65 z3v100))) (= (z3f67 z3v97) false) (= z3v97 (z3f102 z3v98 z3v100)) (>= (z3f65 z3v97) 0) (= z3v97 z3v103) (>= (z3f65 z3v97) 0) (>= (z3f65 z3v100) 0) (>= (z3f65 z3v103) 0) (>= (z3f65 z3v95) 0) (>= (z3f65 z3v124) 0) (= z3v124 z3v108) (>= (z3f65 z3v124) 0) (z3f69 z3v62) (= (z3f71 z3v70) z3v70) (= (z3f71 z3v72) z3v72) (not (z3f69 z3v63)) (= (z3f71 z3v73) z3v73)))
(assert (= z3v107 z3v104))
(assert (>= (z3f65 z3v95) 0))
(pop 1)
(push 1)
(assert true)
(assert (and (>= (z3f65 z3v108) 0) (>= (z3f65 z3v109) 0) (>= (z3f65 z3v96) 0) (>= (z3f65 z3v110) 0) (= (z3f99 z3v110) z3v111) (= (z3f101 z3v110) z3v95) (= (z3f65 z3v110) (+ 1 (z3f65 z3v95))) (= (z3f67 z3v110) false) (z3f69 z3v112) (z3f69 z3v112) (= z3v112 z3v113) (= (z3f69 z3v112) (= z3v111 z3v114)) (= (z3f69 z3v113) (= z3v111 z3v114)) (>= (z3f65 z3v115) 0) (= (z3f99 z3v115) z3v114) (= (z3f101 z3v115) z3v108) (= (z3f65 z3v115) (+ 1 (z3f65 z3v108))) (= (z3f67 z3v115) false) (= z3v115 (z3f102 z3v114 z3v108)) (>= (z3f65 z3v115) 0) (= z3v115 z3v103) (>= (z3f65 z3v115) 0) (>= (z3f65 z3v116) 0) (= (z3f99 z3v116) z3v111) (= (z3f101 z3v116) z3v109) (= (z3f65 z3v116) (+ 1 (z3f65 z3v109))) (= (z3f67 z3v116) false) (= z3v116 (z3f102 z3v111 z3v109)) (>= (z3f65 z3v116) 0) (= z3v116 z3v96) (>= (z3f65 z3v116) 0) (>= (z3f65 z3v97) 0) (= (z3f99 z3v97) z3v98) (= (z3f101 z3v97) z3v100) (= (z3f65 z3v97) (+ 1 (z3f65 z3v100))) (= (z3f67 z3v97) false) (= z3v97 (z3f102 z3v98 z3v100)) (>= (z3f65 z3v97) 0) (= z3v97 z3v103) (>= (z3f65 z3v97) 0) (>= (z3f65 z3v100) 0) (>= (z3f65 z3v103) 0) (>= (z3f65 z3v95) 0) (>= (z3f65 z3v124) 0) (= z3v124 z3v108) (>= (z3f65 z3v124) 0) (z3f69 z3v62) (= (z3f71 z3v70) z3v70) (= (z3f71 z3v72) z3v72) (not (z3f69 z3v63)) (= (z3f71 z3v73) z3v73)))
(assert (= z3v107 z3v104))
(assert (>= (z3f65 z3v95) 0))
(pop 1)
(declare-fun z3v125 () Int)
(push 1)
(assert true)
(assert (= z3v125 z3v108))
(assert (>= (z3f65 z3v125) 0))
(assert (and (>= (z3f65 z3v108) 0) (>= (z3f65 z3v109) 0) (>= (z3f65 z3v96) 0) (>= (z3f65 z3v110) 0) (= (z3f99 z3v110) z3v111) (= (z3f101 z3v110) z3v95) (= (z3f65 z3v110) (+ 1 (z3f65 z3v95))) (= (z3f67 z3v110) false) (z3f69 z3v112) (z3f69 z3v112) (= z3v112 z3v113) (= (z3f69 z3v112) (= z3v111 z3v114)) (= (z3f69 z3v113) (= z3v111 z3v114)) (>= (z3f65 z3v115) 0) (= (z3f99 z3v115) z3v114) (= (z3f101 z3v115) z3v108) (= (z3f65 z3v115) (+ 1 (z3f65 z3v108))) (= (z3f67 z3v115) false) (= z3v115 (z3f102 z3v114 z3v108)) (>= (z3f65 z3v115) 0) (= z3v115 z3v103) (>= (z3f65 z3v115) 0) (>= (z3f65 z3v116) 0) (= (z3f99 z3v116) z3v111) (= (z3f101 z3v116) z3v109) (= (z3f65 z3v116) (+ 1 (z3f65 z3v109))) (= (z3f67 z3v116) false) (= z3v116 (z3f102 z3v111 z3v109)) (>= (z3f65 z3v116) 0) (= z3v116 z3v96) (>= (z3f65 z3v116) 0) (>= (z3f65 z3v97) 0) (= (z3f99 z3v97) z3v98) (= (z3f101 z3v97) z3v100) (= (z3f65 z3v97) (+ 1 (z3f65 z3v100))) (= (z3f67 z3v97) false) (= z3v97 (z3f102 z3v98 z3v100)) (>= (z3f65 z3v97) 0) (= z3v97 z3v103) (>= (z3f65 z3v97) 0) (>= (z3f65 z3v100) 0) (>= (z3f65 z3v103) 0) (>= (z3f65 z3v95) 0) (>= (z3f65 z3v124) 0) (= z3v124 z3v108) (>= (z3f65 z3v124) 0) (z3f69 z3v62) (= (z3f71 z3v70) z3v70) (= (z3f71 z3v72) z3v72) (not (z3f69 z3v63)) (= (z3f71 z3v73) z3v73)))
(assert (= z3v107 z3v104))
(assert (>= (z3f65 z3v95) 0))
(pop 1)
(declare-fun z3v126 () Int)
(push 1)
(assert true)
(assert (= z3v126 z3v104))
(assert (and (>= (z3f65 z3v96) 0) (>= (z3f65 z3v97) 0) (= (z3f99 z3v97) z3v98) (= (z3f101 z3v97) z3v100) (= (z3f65 z3v97) (+ 1 (z3f65 z3v100))) (= (z3f67 z3v97) false) (= z3v97 (z3f102 z3v98 z3v100)) (>= (z3f65 z3v97) 0) (= z3v97 z3v103) (>= (z3f65 z3v97) 0) (>= (z3f65 z3v100) 0) (>= (z3f65 z3v103) 0) (>= (z3f65 z3v95) 0) (= z3v105 z3v104) (z3f69 z3v62) (= (z3f71 z3v70) z3v70) (= (z3f71 z3v72) z3v72) (not (z3f69 z3v63)) (= (z3f71 z3v73) z3v73)))
(assert (>= (z3f65 z3v95) 0))
(push 1)
(assert (not (= z3v126 z3v104)))
(check-sat)
(pop 1)
(pop 1)
(push 1)
(assert true)
(assert (and (>= (z3f65 z3v84) 0) (>= (z3f65 z3v83) 0) (>= (z3f65 z3v85) 0) (z3f69 z3v62) (= (z3f71 z3v70) z3v70) (= (z3f71 z3v72) z3v72) (not (z3f69 z3v63)) (= (z3f71 z3v73) z3v73)))
(assert (= (z3f65 z3v83) 0))
(pop 1)
(push 1)
(assert true)
(assert (and (>= (z3f65 z3v84) 0) (>= (z3f65 z3v83) 0) (>= (z3f65 z3v85) 0) (z3f69 z3v62) (= (z3f71 z3v70) z3v70) (= (z3f71 z3v72) z3v72) (not (z3f69 z3v63)) (= (z3f71 z3v73) z3v73)))
(assert (= (z3f65 z3v83) 0))
(pop 1)
(push 1)
(assert true)
(assert (and (>= (z3f65 z3v84) 0) (>= (z3f65 z3v83) 0) (>= (z3f65 z3v85) 0) (z3f69 z3v62) (= (z3f71 z3v70) z3v70) (= (z3f71 z3v72) z3v72) (not (z3f69 z3v63)) (= (z3f71 z3v73) z3v73)))
(assert (= (z3f65 z3v83) 0))
(pop 1)
(push 1)
(assert true)
(assert (and (>= (z3f65 z3v83) 0) (>= (z3f65 z3v89) 0) (z3f69 z3v62) (= (z3f71 z3v70) z3v70) (= (z3f71 z3v72) z3v72) (not (z3f69 z3v63)) (= (z3f71 z3v73) z3v73)))
(assert (= (z3f65 z3v83) 0))
(pop 1)
(push 1)
(assert true)
(assert (and (>= (z3f65 z3v83) 0) (>= (z3f65 z3v89) 0) (z3f69 z3v62) (= (z3f71 z3v70) z3v70) (= (z3f71 z3v72) z3v72) (not (z3f69 z3v63)) (= (z3f71 z3v73) z3v73)))
(assert (= (z3f65 z3v83) 0))
(pop 1)
(push 1)
(assert true)
(assert (and (>= (z3f65 z3v83) 0) (>= (z3f65 z3v89) 0) (z3f69 z3v62) (= (z3f71 z3v70) z3v70) (= (z3f71 z3v72) z3v72) (not (z3f69 z3v63)) (= (z3f71 z3v73) z3v73)))
(assert (= (z3f65 z3v83) 0))
(pop 1)
(declare-fun z3v127 () Int)
(push 1)
(assert true)
(assert (= (z3f65 z3v127) 0))
(assert (and (>= (z3f65 z3v93) 0) (z3f69 z3v62) (= (z3f71 z3v70) z3v70) (= (z3f71 z3v72) z3v72) (not (z3f69 z3v63)) (= (z3f71 z3v73) z3v73)))
(assert (= (z3f65 z3v93) 0))
(push 1)
(assert (not (>= (z3f65 z3v127) 0)))
(check-sat)
(pop 1)
(pop 1)
(declare-fun z3v128 () Int)
(push 1)
(assert true)
(assert (= z3v128 z3v66))
(assert (>= (z3f65 z3v128) 0))
(assert (= (z3f65 z3v128) 0))
(assert (= (z3f67 z3v128) true))
(assert (and (>= (z3f65 z3v66) 0) (= (z3f65 z3v66) 0) (= (z3f67 z3v66) true) (>= (z3f65 z3v81) 0) (= z3v81 z3v66) (>= (z3f65 z3v81) 0) (= (z3f65 z3v81) 0) (= (z3f67 z3v81) true) (z3f69 z3v62) (= (z3f71 z3v70) z3v70) (= (z3f71 z3v72) z3v72) (not (z3f69 z3v63)) (= (z3f71 z3v73) z3v73)))
(push 1)
(assert (not (= (z3f65 z3v128) 0)))
(check-sat)
(pop 1)
(pop 1)
(push 1)
(assert true)
(assert (and (>= (z3f65 z3v64) 0) (>= (z3f65 z3v66) 0) (= (z3f65 z3v66) 0) (= (z3f67 z3v66) true) (>= (z3f65 z3v68) 0) (z3f69 z3v62) (= (z3f71 z3v70) z3v70) (= (z3f71 z3v72) z3v72) (not (z3f69 z3v63)) (= (z3f71 z3v73) z3v73)))
(pop 1)
(push 1)
(assert true)
(assert (and (>= (z3f65 z3v64) 0) (>= (z3f65 z3v66) 0) (= (z3f65 z3v66) 0) (= (z3f67 z3v66) true) (>= (z3f65 z3v68) 0) (z3f69 z3v62) (= (z3f71 z3v70) z3v70) (= (z3f71 z3v72) z3v72) (not (z3f69 z3v63)) (= (z3f71 z3v73) z3v73)))
(pop 1)
(push 1)
(assert true)
(assert (and (>= (z3f65 z3v64) 0) (>= (z3f65 z3v66) 0) (= (z3f65 z3v66) 0) (= (z3f67 z3v66) true) (>= (z3f65 z3v68) 0) (z3f69 z3v62) (= (z3f71 z3v70) z3v70) (= (z3f71 z3v72) z3v72) (not (z3f69 z3v63)) (= (z3f71 z3v73) z3v73)))
(pop 1)
(push 1)
(assert true)
(assert (and (>= (z3f65 z3v66) 0) (= (z3f65 z3v66) 0) (= (z3f67 z3v66) true) (>= (z3f65 z3v76) 0) (z3f69 z3v62) (= (z3f71 z3v70) z3v70) (= (z3f71 z3v72) z3v72) (not (z3f69 z3v63)) (= (z3f71 z3v73) z3v73)))
(pop 1)
(push 1)
(assert true)
(assert (and (>= (z3f65 z3v66) 0) (= (z3f65 z3v66) 0) (= (z3f67 z3v66) true) (>= (z3f65 z3v76) 0) (z3f69 z3v62) (= (z3f71 z3v70) z3v70) (= (z3f71 z3v72) z3v72) (not (z3f69 z3v63)) (= (z3f71 z3v73) z3v73)))
(pop 1)
(push 1)
(assert true)
(assert (and (>= (z3f65 z3v66) 0) (= (z3f65 z3v66) 0) (= (z3f67 z3v66) true) (>= (z3f65 z3v76) 0) (z3f69 z3v62) (= (z3f71 z3v70) z3v70) (= (z3f71 z3v72) z3v72) (not (z3f69 z3v63)) (= (z3f71 z3v73) z3v73)))
(pop 1)
